#######################################
### Exact MIP solver for the HHCRSP ###
#######################################
-- Instance file: new-instances/HHCRSP_100_20_44_1.6_R_C.txt
-- Max threads: 4
-- Time limit: 999999 seconds
-- Use initial solution: No
Trivial flow violations prevented generating 46697 variables.
Model exported.
Version identifier: 20.1.0.0 | 2020-11-10 | 9bedb6d68
CPXPARAM_Threads                                 4
CPXPARAM_TimeLimit                               999999
Parallel mode: deterministic, using up to 4 threads for concurrent optimization:
 * Starting dual Simplex on 1 thread...
 * Starting Barrier on 3 threads...
Tried aggregator 1 time.
LP Presolve eliminated 5772 rows and 1614 columns.
Reduced LP has 57230 rows, 54609 columns, and 692942 nonzeros.
Presolve time = 0.43 sec. (176.74 ticks)
Symmetry aggregator did 75949 additional substitutions.

Iteration log . . .
Iteration:     1   Dual objective     =             0.000000

Dual crossover.
  Dual:  Fixing 218 variables.
      217 DMoves:  Infeasibility  1.42497125e-13  Objective  1.10333333e+02
        0 DMoves:  Infeasibility  5.24580379e-14  Objective  1.10333333e+02
  Dual:  Pushed 12, exchanged 206.
  Primal:  Fixing 132 variables.
      131 PMoves:  Infeasibility  2.55351296e-15  Objective  1.10333333e+02
        0 PMoves:  Infeasibility  3.16413562e-15  Objective  1.10333333e+02
  Primal:  Pushed 94, exchanged 38.

Dual simplex solved model.


Solution status from MIP model:
-- Processing time: 0.716 sec.
-- Memory used: 120.829 MB
-- Best bound: inf
-- Obj value: 110.333
-- Gap: inf%
-- Total distance: 331
-- Total tardiness: 0
-- Largest tardiness: 0
